proyfinal/src/viki/013/andrea/andrea-localstore/experimentInOfficeAgust.take6/worker_11/4e93c708-efcf-4ae1-8a0f-4bf6f95e6410.als.cnf.out
Reading from standard input... Use '--help' for help.
============================[ Problem Statistics ]=============================
|                                                                             |
|  Number of variables:         87638                                         |
|  Number of clauses:          161767                                         |
|  Parse time:                   0.03 s                                       |
|                                                                             |
============================[ Search Statistics ]==============================
| Conflicts |          ORIGINAL         |          LEARNT          | Progress |
|           |    Vars  Clauses Literals |    Limit  Clauses Lit/Cl |          |
===============================================================================
|       100 |   63873   110604   276161 |    40554      100     99 | 27.117 % |
|       250 |   63873   110604   276161 |    44610      250     74 | 27.117 % |
|       475 |   63873   110604   276161 |    49071      475     56 | 27.117 % |
|       812 |   63873   110604   276161 |    53978      812     56 | 27.117 % |
|      1318 |   63873   110604   276161 |    59376     1318     67 | 27.117 % |
|      2077 |   63872   110560   276071 |    65313     2075     62 | 27.118 % |
|      3216 |   63843   110390   275591 |    71845     3136     82 | 27.151 % |
|      4924 |   63843   110390   275591 |    79029     4844     87 | 27.151 % |
|      7486 |   63768   110324   275438 |    86932     7401    104 | 27.237 % |
|     11330 |   63768   110086   274880 |    95626    11242    104 | 27.237 % |
|     17096 |   54816    82327   206002 |   105188    16678     96 | 37.452 % |
===============================================================================
restarts              : 63
conflicts             : 18761          (7322 /sec)
decisions             : 68391          (0.00 % random) (26691 /sec)
propagations          : 23523607       (9180507 /sec)
conflict literals     : 1807684        (46.19 % deleted)
Memory used           : 39.32 MB
CPU time              : 2.56234 s

INDETERMINATE
